89
750
519	1
517	1
516	1
514	1
510	1
504	1
503	1
488	1
487	1
475	1
474	1
473	1
471	1
467	1
466	1
464	1
463	1
460	1
455	1
453	2
448	1
445	1
438	2
429	2
427	1
419	2
414	1
407	1
406	1
404	1
396	1
395	1
393	1
385	1
367	1
366	1
364	1
359	1
358	1
348	1
345	1
336	1
326	2
324	1
323	1
320	1
318	1
306	1
305	1
303	1
297	1
295	1
290	1
289	1
288	1
282	1
279	1
272	1
265	2
264	1
263	1
261	1
258	1
252	1
251	1
250	2
248	1
246	2
245	1
243	1
242	1
238	1
225	1
220	1
219	1
213	1
209	1
207	1
205	1
201	2
193	1
179	1
177	1
167	1
165	2
164	1
157	1
156	2
151	1
